23:03:17 | INFO    | Run started | run_id: SR_SV_RD_case1_P6_eps9999 | log file: C:\Users\Asus\Documents\GitHub\logistics-model2\internal-logistics-model2\results\SR_SV_RD\case1\SR_SV_RD_case1_P6_eps9999_2026_05_04_23_03.log
23:03:18 | INFO    | Products loaded | sheet=case1 | rows=15
23:03:18 | INFO    | Data loaded | |N|=31 |Nw|=30 |K|=1 |R|=1 |P|=6 | U=30
23:03:18 | INFO    | Big-M | time=491.0 precedence=480.0 wait=465.0 load_lb=20 load_ub=20
23:03:18 | INFO    | Set parameter Username
23:03:18 | INFO    | Set parameter LicenseID to value 2811848
23:03:18 | INFO    | Academic license - for non-commercial use only - expires 2027-04-22
23:03:18 | INFO    | Objective set | primary: min route_duration | tie-break weight on wait: 0.001
23:03:18 | INFO    | Constraint (3) added | total_wait <= 9999
23:03:18 | INFO    | Constraints (4)-(9) added | route structure
23:03:18 | INFO    | Constraints (10)-(12) added | product assignment
23:03:18 | INFO    | Constraints (13)-(15) added | route timing
23:03:18 | INFO    | Constraints (16) added | time consistency
23:03:18 | INFO    | Constraints (17)-(19) added | service times
23:03:18 | INFO    | Constraints (20)-(22) added | precedence, route closure, waiting
23:03:18 | INFO    | Constraints (23)-(27) added | load propagation
23:03:18 | INFO    | Constraints (28)-(32) added | MTZ and route ordering
23:03:18 | INFO    | Set parameter TimeLimit to value 600
23:03:18 | INFO    | Set parameter MIPGap to value 0.01
23:03:18 | INFO    | Set parameter Presolve to value 2
23:03:18 | INFO    | Set parameter LogFile to value "C:\Users\Asus\Documents\GitHub\logistics-model2\internal-logistics-model2\results\SR_SV_RD\case1\result_SR_SV_RD_case1_P6_eps9999_2026_05_04_23_03.log"
23:03:18 | INFO    | Solver configured | TimeLimit=600s | MIPGap=0.01 | gurobi_log=C:\Users\Asus\Documents\GitHub\logistics-model2\internal-logistics-model2\results\SR_SV_RD\case1\result_SR_SV_RD_case1_P6_eps9999_2026_05_04_23_03.log
23:03:18 | INFO    | Optimization starting...
23:03:18 | INFO    | Gurobi Optimizer version 12.0.0 build v12.0.0rc1 (win64 - Windows 10.0 (19045.2))
23:03:18 | INFO    | 
23:03:18 | INFO    | CPU model: 12th Gen Intel(R) Core(TM) i7-12650H, instruction set [SSE2|AVX|AVX2]
23:03:18 | INFO    | Thread count: 10 physical cores, 16 logical processors, using up to 16 threads
23:03:18 | INFO    | 
23:03:18 | INFO    | Non-default parameters:
23:03:18 | INFO    | TimeLimit  600
23:03:18 | INFO    | MIPGap  0.01
23:03:18 | INFO    | Presolve  2
23:03:18 | INFO    | 
23:03:18 | INFO    | Optimize a model with 3859 rows, 1125 columns and 19516 nonzeros
23:03:18 | INFO    | Model fingerprint: 0xda4b9a0b
23:03:18 | INFO    | Variable types: 159 continuous, 966 integer (936 binary)
23:03:18 | INFO    | Coefficient statistics:
23:03:18 | INFO    |   Matrix range     [1e+00, 5e+02]
23:03:18 | INFO    |   Objective range  [1e-03, 1e+00]
23:03:18 | INFO    |   Bounds range     [1e+00, 3e+01]
23:03:18 | INFO    |   RHS range        [1e+00, 1e+04]
23:03:18 | INFO    | Presolve removed 3261 rows and 924 columns
23:03:18 | INFO    | Presolve time: 0.05s
23:03:18 | INFO    | Presolved: 598 rows, 201 columns, 3220 nonzeros
23:03:18 | INFO    | Variable types: 39 continuous, 162 integer (150 binary)
23:03:18 | INFO    | Root relaxation presolve removed 14 rows and 0 columns
23:03:18 | INFO    | Root relaxation presolved: 584 rows, 214 columns, 3194 nonzeros
23:03:18 | INFO    | 
23:03:18 | INFO    | 
23:03:18 | INFO    | Root relaxation: objective 1.800000e-02, 138 iterations, 0.01 seconds (0.00 work units)
23:03:18 | INFO    | 
23:03:18 | INFO    |     Nodes    |    Current Node    |     Objective Bounds      |     Work
23:03:18 | INFO    |  Expl Unexpl |  Obj  Depth IntInf | Incumbent    BestBd   Gap | It/Node Time
23:03:18 | INFO    | 
23:03:18 | INFO    |      0     0    0.01800    0   17          -    0.01800      -     -    0s
23:03:18 | INFO    | H    0     0                     120.3710000    0.01800   100%     -    0s
23:03:18 | INFO    | H    0     0                     115.2920000    0.01800   100%     -    0s
23:03:18 | INFO    |      0     0    0.01800    0   30  115.29200    0.01800   100%     -    0s
23:03:18 | INFO    |      0     0    0.01800    0   34  115.29200    0.01800   100%     -    0s
23:03:18 | INFO    |      0     0    0.01800    0   26  115.29200    0.01800   100%     -    0s
23:03:18 | INFO    |      0     0    0.01800    0   28  115.29200    0.01800   100%     -    0s
23:03:18 | INFO    | H    0     0                     106.2960000    0.01803   100%     -    0s
23:03:18 | INFO    |      0     0    0.01803    0   21  106.29600    0.01803   100%     -    0s
23:03:18 | INFO    |      0     0    0.01900    0   38  106.29600    0.01900   100%     -    0s
23:03:18 | INFO    | H    0     0                     101.2760000    0.02752   100%     -    0s
23:03:18 | INFO    |      0     0    0.02752    0   40  101.27600    0.02752   100%     -    0s
23:03:18 | INFO    |      0     0    0.02789    0   37  101.27600    0.02789   100%     -    0s
23:03:18 | INFO    | H    0     0                      96.2600000    0.04006   100%     -    0s
23:03:18 | INFO    |      0     0    0.04006    0   42   96.26000    0.04006   100%     -    0s
23:03:18 | INFO    |      0     0    0.04272    0   44   96.26000    0.04272   100%     -    0s
23:03:18 | INFO    |      0     0    0.04962    0   43   96.26000    0.04962   100%     -    0s
23:03:18 | INFO    | H    0     0                      90.2240000    0.04987   100%     -    0s
23:03:18 | INFO    |      0     0    0.04987    0   46   90.22400    0.04987   100%     -    0s
23:03:18 | INFO    |      0     0    0.05382    0   42   90.22400    0.05382   100%     -    0s
23:03:18 | INFO    |      0     0    0.05417    0   42   90.22400    0.05417   100%     -    0s
23:03:18 | INFO    |      0     0    0.05462    0   47   90.22400    0.05462   100%     -    0s
23:03:18 | INFO    |      0     0    0.05570    0   46   90.22400    0.05570   100%     -    0s
23:03:18 | INFO    |      0     0    0.05570    0   49   90.22400    0.05570   100%     -    0s
23:03:18 | INFO    |      0     0    0.05570    0   49   90.22400    0.05570   100%     -    0s
23:03:18 | INFO    |      0     0    0.05602    0   48   90.22400    0.05602   100%     -    0s
23:03:18 | INFO    |      0     0    0.05609    0   49   90.22400    0.05609   100%     -    0s
23:03:18 | INFO    |      0     0    0.05631    0   48   90.22400    0.05631   100%     -    0s
23:03:18 | INFO    |      0     0    0.05635    0   50   90.22400    0.05635   100%     -    0s
23:03:18 | INFO    |      0     0    0.05639    0   52   90.22400    0.05639   100%     -    0s
23:03:18 | INFO    |      0     0    0.05644    0   50   90.22400    0.05644   100%     -    0s
23:03:18 | INFO    | H    0     0                      90.2200000    0.05644   100%     -    0s
23:03:18 | INFO    |      0     0    0.05644    0   49   90.22000    0.05644   100%     -    0s
23:03:18 | INFO    |      0     0    0.05644    0   49   90.22000    0.05644   100%     -    0s
23:03:18 | INFO    |      0     2    0.05645    0   46   90.22000    0.05645   100%     -    0s
23:03:18 | INFO    | H   26    68                      88.2160000    0.05848   100%  45.8    0s
23:03:19 | INFO    | H 2388  1596                      88.1780000    0.06656   100%  18.1    1s
23:03:19 | INFO    | H 2478  1570                      86.1700000    0.06656   100%  18.7    1s
23:03:19 | INFO    | H 2615  1567                      86.1570000    0.06656   100%  19.6    1s
23:03:23 | INFO    |  24622  9462    0.08834   55   35   86.15700    0.07526   100%  37.2    5s
23:03:28 | INFO    |  42159 14066    0.08473   35   49   86.15700    0.07849   100%  41.0   10s
23:03:33 | INFO    |  42237 14118    0.09466   30   72   86.15700    0.08516   100%  40.9   15s
23:03:38 | INFO    |  42314 14169    0.11513   64   71   86.15700    0.08804   100%  40.8   20s
23:03:42 | INFO    | H42498 13587                      86.1360000    0.08944   100%  41.5   23s
23:03:43 | INFO    |  43669 13982    0.09359   45   46   86.13600    0.09147   100%  41.6   25s
23:03:48 | INFO    |  57767 15478   75.19130   65   18   86.13600    0.09901   100%  43.8   30s
23:03:53 | INFO    |  73383 15553 infeasible   64        86.13600    0.10265   100%  45.8   35s
23:03:58 | INFO    |  84300 15984    0.14613   53   27   86.13600    0.10455   100%  46.8   40s
23:04:04 | INFO    |  92866 17665    0.18562   50   29   86.13600    0.10561   100%  47.5   45s
23:04:08 | INFO    |  102864 20427 infeasible   53        86.13600    0.10728   100%  47.9   50s
23:04:13 | INFO    |  117410 23188    0.13678   60   17   86.13600    0.10899   100%  48.7   55s
23:04:19 | INFO    |  127636 25008   75.06119   55   18   86.13600    0.11017   100%  49.2   60s
23:04:24 | INFO    |  133054 26259    0.11862   46   33   86.13600    0.11058   100%  49.4   65s
23:04:29 | INFO    |  144824 28135    0.14211   57   29   86.13600    0.11208   100%  49.8   70s
23:04:33 | INFO    |  154477 29539 infeasible   63        86.13600    0.11312   100%  50.0   75s
23:04:38 | INFO    |  162121 30433    0.11759   59   23   86.13600    0.11388   100%  50.1   80s
23:04:44 | INFO    |  163908 30971    2.01628   66   36   86.13600    0.11393   100%  50.2   85s
23:04:48 | INFO    |  173161 31917    0.12368   55   30   86.13600    0.11500   100%  50.5   90s
23:04:53 | INFO    |  180087 32969    0.13676   57   29   86.13600    0.11578   100%  50.7   95s
23:04:58 | INFO    |  191404 33977    8.03037   64   38   86.13600    0.11694   100%  50.9  100s
23:05:03 | INFO    |  199953 34831    0.17619   71   24   86.13600    0.11790   100%  51.1  105s
23:05:09 | INFO    |  210474 35836   19.51610   56   25   86.13600    0.11906   100%  51.2  110s
23:05:14 | INFO    |  221062 36763 infeasible   50        86.13600    0.12017   100%  51.3  115s
23:05:19 | INFO    |  228821 37268   14.41135   71   25   86.13600    0.12099   100%  51.4  120s
23:05:23 | INFO    |  238784 37835 infeasible   61        86.13600    0.12193   100%  51.5  125s
23:05:28 | INFO    |  245764 38225   58.03719   84   16   86.13600    0.12276   100%  51.6  130s
23:05:35 | INFO    |  255109 38510     cutoff   56        86.13600    0.12396   100%  51.7  136s
23:05:40 | INFO    |  260501 38612    0.12780   59   24   86.13600    0.12458   100%  51.7  141s
23:05:43 | INFO    |  261024 38610    0.12666   54   32   86.13600    0.12462   100%  51.7  145s
23:05:49 | INFO    |  266147 38777 infeasible   61        86.13600    0.12522   100%  51.8  151s
23:05:55 | INFO    |  271735 38896    0.13498   58   29   86.13600    0.12589   100%  51.8  156s
23:06:00 | INFO    |  276919 39038 infeasible   58        86.13600    0.12652   100%  51.9  161s
23:06:04 | INFO    |  280612 38994    0.15696   68   29   86.13600    0.12699   100%  51.9  165s
23:06:10 | INFO    |  285589 39082    0.13982   55   27   86.13600    0.12760   100%  52.0  171s
23:06:14 | INFO    |  289011 39047    0.15837   50   24   86.13600    0.12806   100%  52.0  175s
23:06:20 | INFO    |  291791 39204   27.30182   54   27   86.13600    0.12840   100%  52.0  181s
23:06:24 | INFO    |  295700 39072 infeasible   50        86.13600    0.12889   100%  52.1  185s
23:06:29 | INFO    |  301359 39047   60.92260   68   21   86.13600    0.12960   100%  52.1  190s
23:06:34 | INFO    |  311536 39003 infeasible   54        86.13600    0.13098   100%  52.2  195s
23:06:39 | INFO    |  318935 38902 infeasible   60        86.13600    0.13209   100%  52.2  200s
23:06:43 | INFO    |  327269 38472    2.16033   79   34   86.13600    0.13334   100%  52.3  205s
23:06:49 | INFO    |  336418 38040 infeasible   65        86.13600    0.13489   100%  52.4  210s
23:06:53 | INFO    |  345041 37510    0.17386   62   33   86.13600    0.13634   100%  52.4  215s
23:06:58 | INFO    |  352302 36970 infeasible   60        86.13600    0.13723   100%  52.4  220s
23:07:03 | INFO    |  361369 36320    0.18899   52   19   86.13600    0.13946   100%  52.5  225s
23:07:09 | INFO    |  369859 35634    0.15870   51   31   86.13600    0.14131   100%  52.6  230s
23:07:14 | INFO    |  378075 35070    0.29400   48   12   86.13600    0.14308   100%  52.6  235s
23:07:19 | INFO    |  383994 34285 infeasible   75        86.13600    0.14426   100%  52.7  240s
23:07:23 | INFO    |  391081 33659    0.20644   65   26   86.13600    0.14631   100%  52.8  245s
23:07:29 | INFO    |  400206 32684 infeasible   55        86.13600    0.14876   100%  52.8  250s
23:07:34 | INFO    |  406354 31697 infeasible   66        86.13600    0.15045   100%  52.9  255s
23:07:38 | INFO    |  411684 31120    0.21901   65   24   86.13600    0.15232   100%  53.0  260s
23:07:44 | INFO    |  414771 30613 infeasible   63        86.13600    0.15264   100%  53.0  266s
23:07:48 | INFO    |  418949 29871 infeasible   62        86.13600    0.15489   100%  53.0  270s
23:07:54 | INFO    |  428776 28446 infeasible   53        86.13600    0.15880   100%  53.1  275s
23:07:59 | INFO    |  434033 27171    1.32997   51   37   86.13600    0.16142   100%  53.2  281s
23:08:04 | INFO    |  437759 26558   64.08300   48   25   86.13600    0.16336   100%  53.2  286s
23:08:09 | INFO    |  441150 25860    0.25585   53   20   86.13600    0.16518   100%  53.3  290s
23:08:13 | INFO    |  444816 25170 infeasible   56        86.13600    0.16760   100%  53.3  295s
23:08:20 | INFO    |  448632 24179 infeasible   48        86.13600    0.17017   100%  53.4  302s
23:08:25 | INFO    |  452318 23318 infeasible   45        86.13600    0.17261   100%  53.4  307s
23:08:30 | INFO    |  456170 22612   49.81074   49   16   86.13600    0.17544   100%  53.4  311s
23:08:35 | INFO    |  457573 22255 infeasible   67        86.13600    0.17700   100%  53.4  316s
23:08:40 | INFO    |  460860 21515   18.47199   63   22   86.13600    0.17953   100%  53.4  321s
23:08:45 | INFO    |  464118 20732    0.18498   59   28   86.13600    0.18319   100%  53.5  326s
23:08:49 | INFO    |  467786 19579   56.09572   75   24   86.13600    0.18813   100%  53.5  331s
23:08:54 | INFO    |  471285 18682 infeasible   68        86.13600    0.19386   100%  53.5  336s
23:08:59 | INFO    |  474543 17744 infeasible   75        86.13600    0.20100   100%  53.6  341s
23:09:04 | INFO    |  477629 16777 infeasible   48        86.13600    0.20840   100%  53.6  345s
23:09:09 | INFO    |  480800 15763 infeasible   59        86.13600    0.22040   100%  53.6  350s
23:09:14 | INFO    |  483695 14588 infeasible   60        86.13600    0.24000   100%  53.6  355s
23:09:19 | INFO    |  486689 13414 infeasible   66        86.13600    0.36067   100%  53.6  360s
23:09:24 | INFO    |  489837 12450   81.56420   60   14   86.13600    2.81609  96.7%  53.7  365s
23:09:29 | INFO    |  492895 11330 infeasible   54        86.13600   10.10346  88.3%  53.8  370s
23:09:33 | INFO    |  496366 10098   42.21323   72   27   86.13600   42.01800  51.2%  53.8  375s
23:09:38 | INFO    |  499130  8997   47.09067   78   29   86.13600   44.02249  48.9%  53.9  380s
23:09:43 | INFO    |  507605  6701 infeasible   57        86.13600   56.05722  34.9%  54.1  385s
23:09:49 | INFO    |  518910  2975   78.45062   63   19   86.13600   70.12797  18.6%  53.8  391s
23:09:52 | INFO    | 
23:09:52 | INFO    | Cutting planes:
23:09:52 | INFO    |   Gomory: 6
23:09:52 | INFO    |   Cover: 15
23:09:52 | INFO    |   Implied bound: 236
23:09:52 | INFO    |   Projected implied bound: 1
23:09:52 | INFO    |   Clique: 2
23:09:52 | INFO    |   MIR: 513
23:09:52 | INFO    |   Mixing: 10
23:09:52 | INFO    |   StrongCG: 25
23:09:52 | INFO    |   Flow cover: 1344
23:09:52 | INFO    |   Inf proof: 169
23:09:52 | INFO    |   Zero half: 15
23:09:52 | INFO    |   RLT: 186
23:09:52 | INFO    |   Relax-and-lift: 112
23:09:52 | INFO    |   PSD: 23
23:09:52 | INFO    | 
23:09:52 | INFO    | Explored 527093 nodes (28194327 simplex iterations) in 393.57 seconds (244.24 work units)
23:09:52 | INFO    | Thread count was 16 (of 16 available processors)
23:09:52 | INFO    | 
23:09:52 | INFO    | Solution count 10: 86.136 86.136 86.157 ... 101.276
23:09:52 | INFO    | 
23:09:52 | INFO    | Optimal solution found (tolerance 1.00e-02)
23:09:52 | INFO    | Best objective 8.613600000000e+01, best bound 8.613600000000e+01, gap 0.0000%
23:09:52 | INFO    | Solution found | route_duration=86.00 | total_wait=136.00
23:09:52 | INFO    | Objective=86.14 | runtime=393.58s | MIP Gap=0.00%
23:09:52 | INFO    | Generating Excel output | C:\Users\Asus\Documents\GitHub\logistics-model2\internal-logistics-model2\results\SR_SV_RD\case1\result_SR_SV_RD_case1_P6_eps9999_2026_05_04_23_03.xlsx
23:09:52 | INFO    | Excel output written | 12 sheets | C:\Users\Asus\Documents\GitHub\logistics-model2\internal-logistics-model2\results\SR_SV_RD\case1\result_SR_SV_RD_case1_P6_eps9999_2026_05_04_23_03.xlsx
23:09:52 | INFO    | Master Pareto updated | 25 total rows | C:\Users\Asus\Documents\GitHub\logistics-model2\internal-logistics-model2\results\master_pareto.xlsx
23:09:52 | INFO    | Run complete | run_id=SR_SV_RD_case1_P6_eps9999
